(set-logic QF_SLIA)
(declare-fun var0 () String)
(assert (str.in_re var0 (re.++ ((_ re.loop 0 3) (re.++ ((_ re.loop 0 20) (str.to_re "4^")) (re.++ ((_ re.loop 0 17) (str.to_re "^*")) (re.++ ((_ re.loop 2 10) (str.to_re "b")) ((_ re.loop 0 19) (str.to_re "TSj")))))) (re.++ ((_ re.loop 1 4) (re.++ ((_ re.loop 3 13) (str.to_re "I2")) (re.++ ((_ re.loop 2 5) (str.to_re "\\&")) (re.++ ((_ re.loop 1 7) (str.to_re "x9")) ((_ re.loop 3 13) (str.to_re "T")))))) (re.++ ((_ re.loop 1 4) (re.++ ((_ re.loop 0 7) (str.to_re "j\u0022M")) (re.++ ((_ re.loop 2 17) (str.to_re "@")) (re.++ ((_ re.loop 0 19) (str.to_re "8")) ((_ re.loop 3 10) (str.to_re ">")))))) ((_ re.loop 1 4) (re.++ ((_ re.loop 4 9) (str.to_re "5S")) (re.++ ((_ re.loop 0 18) (str.to_re "&#")) (re.++ ((_ re.loop 2 14) (str.to_re "xC}")) ((_ re.loop 0 7) (str.to_re "XT5")))))))))))
(assert (not (str.in_re var0 (re.++ (re.* re.allchar) (re.++ (re.union (str.to_re "<") (re.union (str.to_re ">") (re.union (str.to_re "'") (re.union (str.to_re "\u0022") (str.to_re "&"))))) (re.* re.allchar))))))
(assert (<= 50 (str.len var0)))
(check-sat)
(get-model)
